
Gurobi 11.0.2 (win64) logging started Wed Aug  7 21:09:11 2024

Set parameter LogFile to value "D:\Documenti\Scuola\Laurea magistrale unibs\laurea-unibs-mkfsp\output\2024-08-07T17_25_17.381079\logs\instance11_bucket3.log"
Set parameter TimeLimit to value 100
Set parameter MIPGap to value 0
Gurobi Optimizer version 11.0.2 build v11.0.2rc0 (win64 - Windows 10.0 (19045.2))

CPU model: Intel(R) Core(TM) i5-4670 CPU @ 3.40GHz, instruction set [SSE2|AVX|AVX2]
Thread count: 4 physical cores, 4 logical processors, using up to 4 threads

Optimize a model with 5510 rows, 24346 columns and 679042 nonzeros
Model fingerprint: 0xa9f113b5
Variable types: 0 continuous, 24346 integer (24063 binary)
Coefficient statistics:
  Matrix range     [1e+00, 9e+03]
  Objective range  [6e+02, 9e+03]
  Bounds range     [1e+00, 1e+00]
  RHS range        [1e+00, 1e+06]
Presolve time: 1.44s
Presolved: 5510 rows, 24346 columns, 679042 nonzeros
Variable types: 0 continuous, 24346 integer (24063 binary)
Deterministic concurrent LP optimizer: primal simplex, dual simplex, and barrier
Showing barrier log only...

Root barrier log...

Ordering time: 0.08s

Barrier statistics:
 AA' NZ     : 7.296e+05
 Factor NZ  : 8.219e+05 (roughly 17 MB of memory)
 Factor Ops : 2.708e+08 (less than 1 second per iteration)
 Threads    : 1

                  Objective                Residual
Iter       Primal          Dual         Primal    Dual     Compl     Time
   0   1.01688478e+08  1.10472612e+08  5.11e+06 0.00e+00  7.18e+05     2s
   1   2.01339808e+07  1.13719074e+08  8.81e+05 4.83e-13  1.33e+05     2s
   2   1.60781386e+06  1.04976082e+08  9.10e+03 5.12e-13  3.67e+03     3s
   3   1.42916119e+06  4.18055473e+07  3.02e+02 1.53e-12  9.51e+02     3s
   4   1.43094012e+06  5.28416686e+06  1.26e-13 1.35e-13  8.83e+01     3s
   5   1.48857763e+06  1.79228381e+06  5.24e-14 3.86e-14  6.96e+00     3s
   6   1.49483709e+06  1.52633433e+06  9.68e-14 4.15e-14  7.22e-01     3s
   7   1.49728486e+06  1.50144609e+06  1.72e-13 4.26e-14  9.54e-02     3s
   8   1.49747896e+06  1.49859754e+06  4.57e-13 4.62e-14  2.56e-02     3s
   9   1.49765343e+06  1.49789923e+06  2.59e-12 3.02e-14  5.64e-03     3s
  10   1.49770878e+06  1.49779368e+06  5.62e-12 3.96e-14  1.95e-03     3s
  11   1.49775259e+06  1.49775865e+06  6.68e-11 3.69e-14  1.39e-04     4s
  12   1.49775565e+06  1.49775572e+06  4.25e-13 3.60e-14  1.56e-06     4s
  13   1.49775568e+06  1.49775568e+06  5.19e-11 3.09e-14  5.07e-09     4s

Barrier solved model in 13 iterations and 3.85 seconds (2.86 work units)
Optimal objective 1.49775568e+06

  Building initial crossover basis                                 5s

Root crossover log...

    1848 DPushes remaining with DInf 3.8130816e-02                 6s
       0 DPushes remaining with DInf 0.0000000e+00                 6s

     105 PPushes remaining with PInf 2.1217169e-04                 6s
       0 PPushes remaining with PInf 0.0000000e+00                 6s

  Push phase complete: Pinf 0.0000000e+00, Dinf 2.7090812e-11      6s


Root simplex log...

Iteration    Objective       Primal Inf.    Dual Inf.      Time
    1952    1.4977557e+06   0.000000e+00   0.000000e+00      7s
Concurrent spin time: 0.00s

Solved with barrier
    1952    1.4977557e+06   0.000000e+00   0.000000e+00      7s

Root relaxation: objective 1.497756e+06, 1952 iterations, 4.83 seconds (3.08 work units)
Total elapsed time = 26.66s (DegenMoves)
Total elapsed time = 39.28s (DegenMoves)
Total elapsed time = 52.43s (DegenMoves)
Total elapsed time = 71.02s (DegenMoves)

    Nodes    |    Current Node    |     Objective Bounds      |     Work
 Expl Unexpl |  Obj  Depth IntInf | Incumbent    BestBd   Gap | It/Node Time

     0     0 1497755.68    0 2063          - 1497755.68      -     -   79s
     0     0          -    0               - 1497755.47      -     -  100s

Cutting planes:
  Cover: 822
  Clique: 32
  MIR: 422

Explored 1 nodes (87013 simplex iterations) in 100.07 seconds (117.11 work units)
Thread count was 4 (of 4 available processors)

Solution count 0

Time limit reached
Best objective -, best bound 1.497755465922e+06, gap -
